Maximize
 obj: - z0 - z1 - z2 - z3 - z4 - z5 - z6 - z7 - z8 - z9 - z10 - z11 - z12 - z13 - z14 - z15 - z16 - z17 - z18 - z19 - z20 - z21 - z22 - z23 - z24 + 25
Subject To
 c0: x00 + x01 + x02 + x03 = 1
 c1: x10 + x11 + x12 + x13 = 1
 c2: x20 + x21 + x22 + x23 = 1
 c3: x30 + x31 + x32 + x33 = 1
 c4: x40 + x41 + x42 + x43 = 1
 c5: x50 + x51 + x52 + x53 = 1
 c6: x60 + x61 + x62 + x63 = 1
 c7: x70 + x71 + x72 + x73 = 1
 c8: x80 + x81 + x82 + x83 = 1
 c9: x90 + x91 + x92 + x93 = 1
 c10: x100 + x101 + x102 + x103 = 1
 c11: x110 + x111 + x112 + x113 = 1
 c12: x120 + x121 + x122 + x123 = 1
 c13: x130 + x131 + x132 + x133 = 1
 c14: x140 + x141 + x142 + x143 = 1
 c15: x150 + x151 + x152 + x153 = 1
 c16: x160 + x161 + x162 + x163 = 1
 c17: x170 + x171 + x172 + x173 = 1
 c18: x180 + x181 + x182 + x183 = 1
 c19: x190 + x191 + x192 + x193 = 1
 c20: x200 + x201 + x202 + x203 = 1
 c21: x210 + x211 + x212 + x213 = 1
 c22: x220 + x221 + x222 + x223 = 1
 c23: x230 + x231 + x232 + x233 = 1
 c24: x240 + x241 + x242 + x243 = 1
 c25: x00 + x42 - z0 <= 1
 c26: x00 + x43 - z0 <= 1
 c27: x00 + x192 - z0 <= 1
 c28: x00 + x193 - z0 <= 1
 c29: x01 + x42 - z0 <= 1
 c30: x01 + x70 - z0 <= 1
 c31: x01 + x192 - z0 <= 1
 c32: x02 + x70 - z0 <= 1
 c33: x02 + x73 - z0 <= 1
 c34: x02 + x170 - z0 <= 1
 c35: x02 + x171 - z0 <= 1
 c36: x03 + x170 - z0 <= 1
 c37: x10 + x23 - z1 <= 1
 c38: x10 + x62 - z1 <= 1
 c39: x10 + x63 - z1 <= 1
 c40: x10 + x100 - z1 <= 1
 c41: x10 + x101 - z1 <= 1
 c42: x10 + x110 - z1 <= 1
 c43: x10 + x113 - z1 <= 1
 c44: x10 + x130 - z1 <= 1
 c45: x10 + x131 - z1 <= 1
 c46: x10 + x132 - z1 <= 1
 c47: x10 + x133 - z1 <= 1
 c48: x10 + x211 - z1 <= 1
 c49: x10 + x212 - z1 <= 1
 c50: x10 + x221 - z1 <= 1
 c51: x11 + x22 - z1 <= 1
 c52: x11 + x23 - z1 <= 1
 c53: x11 + x62 - z1 <= 1
 c54: x11 + x101 - z1 <= 1
 c55: x11 + x110 - z1 <= 1
 c56: x11 + x111 - z1 <= 1
 c57: x11 + x112 - z1 <= 1
 c58: x11 + x113 - z1 <= 1
 c59: x11 + x131 - z1 <= 1
 c60: x11 + x132 - z1 <= 1
 c61: x12 + x101 - z1 <= 1
 c62: x12 + x102 - z1 <= 1
 c63: x12 + x112 - z1 <= 1
 c64: x12 + x113 - z1 <= 1
 c65: x12 + x132 - z1 <= 1
 c66: x12 + x240 - z1 <= 1
 c67: x12 + x241 - z1 <= 1
 c68: x13 + x100 - z1 <= 1
 c69: x13 + x101 - z1 <= 1
 c70: x13 + x102 - z1 <= 1
 c71: x13 + x103 - z1 <= 1
 c72: x13 + x113 - z1 <= 1
 c73: x13 + x132 - z1 <= 1
 c74: x13 + x133 - z1 <= 1
 c75: x13 + x212 - z1 <= 1
 c76: x13 + x221 - z1 <= 1
 c77: x13 + x222 - z1 <= 1
 c78: x13 + x240 - z1 <= 1
 c79: x20 + x61 - z2 <= 1
 c80: x20 + x110 - z2 <= 1
 c81: x20 + x111 - z2 <= 1
 c82: x21 + x111 - z2 <= 1
 c83: x22 + x11 - z2 <= 1
 c84: x22 + x111 - z2 <= 1
 c85: x22 + x112 - z2 <= 1
 c86: x23 + x10 - z2 <= 1
 c87: x23 + x11 - z2 <= 1
 c88: x23 + x61 - z2 <= 1
 c89: x23 + x62 - z2 <= 1
 c90: x23 + x101 - z2 <= 1
 c91: x23 + x110 - z2 <= 1
 c92: x23 + x111 - z2 <= 1
 c93: x23 + x112 - z2 <= 1
 c94: x23 + x113 - z2 <= 1
 c95: x23 + x131 - z2 <= 1
 c96: x30 + x90 - z3 <= 1
 c97: x30 + x120 - z3 <= 1
 c98: x30 + x121 - z3 <= 1
 c99: x31 + x90 - z3 <= 1
 c100: x31 + x91 - z3 <= 1
 c101: x31 + x103 - z3 <= 1
 c102: x31 + x121 - z3 <= 1
 c103: x31 + x180 - z3 <= 1
 c104: x31 + x200 - z3 <= 1
 c105: x31 + x203 - z3 <= 1
 c106: x31 + x240 - z3 <= 1
 c107: x31 + x243 - z3 <= 1
 c108: x32 + x90 - z3 <= 1
 c109: x32 + x91 - z3 <= 1
 c110: x32 + x92 - z3 <= 1
 c111: x32 + x93 - z3 <= 1
 c112: x32 + x121 - z3 <= 1
 c113: x32 + x122 - z3 <= 1
 c114: x32 + x150 - z3 <= 1
 c115: x32 + x180 - z3 <= 1
 c116: x32 + x183 - z3 <= 1
 c117: x32 + x203 - z3 <= 1
 c118: x32 + x243 - z3 <= 1
 c119: x33 + x90 - z3 <= 1
 c120: x33 + x93 - z3 <= 1
 c121: x33 + x120 - z3 <= 1
 c122: x33 + x121 - z3 <= 1
 c123: x33 + x122 - z3 <= 1
 c124: x33 + x123 - z3 <= 1
 c125: x40 + x50 - z4 <= 1
 c126: x40 + x53 - z4 <= 1
 c127: x40 + x143 - z4 <= 1
 c128: x40 + x160 - z4 <= 1
 c129: x40 + x163 - z4 <= 1
 c130: x40 + x190 - z4 <= 1
 c131: x40 + x191 - z4 <= 1
 c132: x41 + x50 - z4 <= 1
 c133: x41 + x51 - z4 <= 1
 c134: x41 + x52 - z4 <= 1
 c135: x41 + x53 - z4 <= 1
 c136: x41 + x142 - z4 <= 1
 c137: x41 + x143 - z4 <= 1
 c138: x41 + x160 - z4 <= 1
 c139: x41 + x161 - z4 <= 1
 c140: x41 + x162 - z4 <= 1
 c141: x41 + x163 - z4 <= 1
 c142: x41 + x191 - z4 <= 1
 c143: x42 + x00 - z4 <= 1
 c144: x42 + x01 - z4 <= 1
 c145: x42 + x52 - z4 <= 1
 c146: x42 + x53 - z4 <= 1
 c147: x42 + x162 - z4 <= 1
 c148: x42 + x163 - z4 <= 1
 c149: x42 + x191 - z4 <= 1
 c150: x42 + x192 - z4 <= 1
 c151: x43 + x00 - z4 <= 1
 c152: x43 + x53 - z4 <= 1
 c153: x43 + x163 - z4 <= 1
 c154: x43 + x190 - z4 <= 1
 c155: x43 + x191 - z4 <= 1
 c156: x43 + x192 - z4 <= 1
 c157: x43 + x193 - z4 <= 1
 c158: x50 + x40 - z5 <= 1
 c159: x50 + x41 - z5 <= 1
 c160: x50 + x140 - z5 <= 1
 c161: x50 + x143 - z5 <= 1
 c162: x50 + x160 - z5 <= 1
 c163: x50 + x161 - z5 <= 1
 c164: x51 + x41 - z5 <= 1
 c165: x51 + x140 - z5 <= 1
 c166: x51 + x141 - z5 <= 1
 c167: x51 + x142 - z5 <= 1
 c168: x51 + x143 - z5 <= 1
 c169: x51 + x161 - z5 <= 1
 c170: x51 + x233 - z5 <= 1
 c171: x52 + x41 - z5 <= 1
 c172: x52 + x42 - z5 <= 1
 c173: x52 + x142 - z5 <= 1
 c174: x52 + x143 - z5 <= 1
 c175: x52 + x161 - z5 <= 1
 c176: x52 + x162 - z5 <= 1
 c177: x52 + x191 - z5 <= 1
 c178: x53 + x40 - z5 <= 1
 c179: x53 + x41 - z5 <= 1
 c180: x53 + x42 - z5 <= 1
 c181: x53 + x43 - z5 <= 1
 c182: x53 + x143 - z5 <= 1
 c183: x53 + x160 - z5 <= 1
 c184: x53 + x161 - z5 <= 1
 c185: x53 + x162 - z5 <= 1
 c186: x53 + x163 - z5 <= 1
 c187: x53 + x190 - z5 <= 1
 c188: x53 + x191 - z5 <= 1
 c189: x60 + x110 - z6 <= 1
 c190: x60 + x211 - z6 <= 1
 c191: x61 + x20 - z6 <= 1
 c192: x61 + x23 - z6 <= 1
 c193: x61 + x110 - z6 <= 1
 c194: x61 + x111 - z6 <= 1
 c195: x62 + x10 - z6 <= 1
 c196: x62 + x11 - z6 <= 1
 c197: x62 + x23 - z6 <= 1
 c198: x62 + x101 - z6 <= 1
 c199: x62 + x110 - z6 <= 1
 c200: x62 + x111 - z6 <= 1
 c201: x62 + x112 - z6 <= 1
 c202: x62 + x113 - z6 <= 1
 c203: x62 + x131 - z6 <= 1
 c204: x63 + x10 - z6 <= 1
 c205: x63 + x100 - z6 <= 1
 c206: x63 + x101 - z6 <= 1
 c207: x63 + x110 - z6 <= 1
 c208: x63 + x113 - z6 <= 1
 c209: x63 + x130 - z6 <= 1
 c210: x63 + x131 - z6 <= 1
 c211: x63 + x211 - z6 <= 1
 c212: x63 + x212 - z6 <= 1
 c213: x63 + x221 - z6 <= 1
 c214: x70 + x01 - z7 <= 1
 c215: x70 + x02 - z7 <= 1
 c216: x70 + x170 - z7 <= 1
 c217: x70 + x171 - z7 <= 1
 c218: x71 + x171 - z7 <= 1
 c219: x72 + x171 - z7 <= 1
 c220: x72 + x172 - z7 <= 1
 c221: x73 + x02 - z7 <= 1
 c222: x73 + x170 - z7 <= 1
 c223: x73 + x171 - z7 <= 1
 c224: x73 + x172 - z7 <= 1
 c225: x73 + x173 - z7 <= 1
 c226: x80 + x141 - z8 <= 1
 c227: x80 + x151 - z8 <= 1
 c228: x80 + x152 - z8 <= 1
 c229: x80 + x230 - z8 <= 1
 c230: x80 + x231 - z8 <= 1
 c231: x80 + x232 - z8 <= 1
 c232: x80 + x233 - z8 <= 1
 c233: x81 + x231 - z8 <= 1
 c234: x81 + x232 - z8 <= 1
 c235: x82 + x232 - z8 <= 1
 c236: x83 + x141 - z8 <= 1
 c237: x83 + x142 - z8 <= 1
 c238: x83 + x152 - z8 <= 1
 c239: x83 + x232 - z8 <= 1
 c240: x83 + x233 - z8 <= 1
 c241: x90 + x30 - z9 <= 1
 c242: x90 + x31 - z9 <= 1
 c243: x90 + x32 - z9 <= 1
 c244: x90 + x33 - z9 <= 1
 c245: x90 + x120 - z9 <= 1
 c246: x90 + x121 - z9 <= 1
 c247: x90 + x122 - z9 <= 1
 c248: x90 + x123 - z9 <= 1
 c249: x91 + x31 - z9 <= 1
 c250: x91 + x32 - z9 <= 1
 c251: x91 + x121 - z9 <= 1
 c252: x91 + x122 - z9 <= 1
 c253: x91 + x180 - z9 <= 1
 c254: x91 + x200 - z9 <= 1
 c255: x91 + x203 - z9 <= 1
 c256: x91 + x240 - z9 <= 1
 c257: x91 + x243 - z9 <= 1
 c258: x92 + x32 - z9 <= 1
 c259: x92 + x122 - z9 <= 1
 c260: x92 + x150 - z9 <= 1
 c261: x92 + x151 - z9 <= 1
 c262: x92 + x180 - z9 <= 1
 c263: x92 + x183 - z9 <= 1
 c264: x92 + x203 - z9 <= 1
 c265: x92 + x243 - z9 <= 1
 c266: x93 + x32 - z9 <= 1
 c267: x93 + x33 - z9 <= 1
 c268: x93 + x122 - z9 <= 1
 c269: x93 + x123 - z9 <= 1
 c270: x93 + x150 - z9 <= 1
 c271: x100 + x10 - z10 <= 1
 c272: x100 + x13 - z10 <= 1
 c273: x100 + x63 - z10 <= 1
 c274: x100 + x113 - z10 <= 1
 c275: x100 + x130 - z10 <= 1
 c276: x100 + x131 - z10 <= 1
 c277: x100 + x132 - z10 <= 1
 c278: x100 + x133 - z10 <= 1
 c279: x100 + x212 - z10 <= 1
 c280: x100 + x213 - z10 <= 1
 c281: x100 + x221 - z10 <= 1
 c282: x100 + x222 - z10 <= 1
 c283: x101 + x10 - z10 <= 1
 c284: x101 + x11 - z10 <= 1
 c285: x101 + x12 - z10 <= 1
 c286: x101 + x13 - z10 <= 1
 c287: x101 + x23 - z10 <= 1
 c288: x101 + x62 - z10 <= 1
 c289: x101 + x63 - z10 <= 1
 c290: x101 + x112 - z10 <= 1
 c291: x101 + x113 - z10 <= 1
 c292: x101 + x131 - z10 <= 1
 c293: x101 + x132 - z10 <= 1
 c294: x101 + x212 - z10 <= 1
 c295: x102 + x12 - z10 <= 1
 c296: x102 + x13 - z10 <= 1
 c297: x102 + x132 - z10 <= 1
 c298: x102 + x200 - z10 <= 1
 c299: x102 + x201 - z10 <= 1
 c300: x102 + x240 - z10 <= 1
 c301: x102 + x241 - z10 <= 1
 c302: x103 + x13 - z10 <= 1
 c303: x103 + x31 - z10 <= 1
 c304: x103 + x132 - z10 <= 1
 c305: x103 + x133 - z10 <= 1
 c306: x103 + x200 - z10 <= 1
 c307: x103 + x222 - z10 <= 1
 c308: x103 + x240 - z10 <= 1
 c309: x110 + x10 - z11 <= 1
 c310: x110 + x11 - z11 <= 1
 c311: x110 + x20 - z11 <= 1
 c312: x110 + x23 - z11 <= 1
 c313: x110 + x60 - z11 <= 1
 c314: x110 + x61 - z11 <= 1
 c315: x110 + x62 - z11 <= 1
 c316: x110 + x63 - z11 <= 1
 c317: x110 + x131 - z11 <= 1
 c318: x110 + x211 - z11 <= 1
 c319: x111 + x11 - z11 <= 1
 c320: x111 + x20 - z11 <= 1
 c321: x111 + x21 - z11 <= 1
 c322: x111 + x22 - z11 <= 1
 c323: x111 + x23 - z11 <= 1
 c324: x111 + x61 - z11 <= 1
 c325: x111 + x62 - z11 <= 1
 c326: x112 + x11 - z11 <= 1
 c327: x112 + x12 - z11 <= 1
 c328: x112 + x22 - z11 <= 1
 c329: x112 + x23 - z11 <= 1
 c330: x112 + x62 - z11 <= 1
 c331: x112 + x101 - z11 <= 1
 c332: x113 + x10 - z11 <= 1
 c333: x113 + x11 - z11 <= 1
 c334: x113 + x12 - z11 <= 1
 c335: x113 + x13 - z11 <= 1
 c336: x113 + x23 - z11 <= 1
 c337: x113 + x62 - z11 <= 1
 c338: x113 + x63 - z11 <= 1
 c339: x113 + x100 - z11 <= 1
 c340: x113 + x101 - z11 <= 1
 c341: x113 + x131 - z11 <= 1
 c342: x113 + x132 - z11 <= 1
 c343: x113 + x211 - z11 <= 1
 c344: x113 + x212 - z11 <= 1
 c345: x120 + x30 - z12 <= 1
 c346: x120 + x33 - z12 <= 1
 c347: x120 + x90 - z12 <= 1
 c348: x121 + x30 - z12 <= 1
 c349: x121 + x31 - z12 <= 1
 c350: x121 + x32 - z12 <= 1
 c351: x121 + x33 - z12 <= 1
 c352: x121 + x90 - z12 <= 1
 c353: x121 + x91 - z12 <= 1
 c354: x122 + x32 - z12 <= 1
 c355: x122 + x33 - z12 <= 1
 c356: x122 + x90 - z12 <= 1
 c357: x122 + x91 - z12 <= 1
 c358: x122 + x92 - z12 <= 1
 c359: x122 + x93 - z12 <= 1
 c360: x122 + x150 - z12 <= 1
 c361: x123 + x33 - z12 <= 1
 c362: x123 + x90 - z12 <= 1
 c363: x123 + x93 - z12 <= 1
 c364: x130 + x10 - z13 <= 1
 c365: x130 + x63 - z13 <= 1
 c366: x130 + x100 - z13 <= 1
 c367: x130 + x210 - z13 <= 1
 c368: x130 + x211 - z13 <= 1
 c369: x130 + x212 - z13 <= 1
 c370: x130 + x213 - z13 <= 1
 c371: x130 + x221 - z13 <= 1
 c372: x131 + x10 - z13 <= 1
 c373: x131 + x11 - z13 <= 1
 c374: x131 + x23 - z13 <= 1
 c375: x131 + x62 - z13 <= 1
 c376: x131 + x63 - z13 <= 1
 c377: x131 + x100 - z13 <= 1
 c378: x131 + x101 - z13 <= 1
 c379: x131 + x110 - z13 <= 1
 c380: x131 + x113 - z13 <= 1
 c381: x131 + x211 - z13 <= 1
 c382: x131 + x212 - z13 <= 1
 c383: x132 + x10 - z13 <= 1
 c384: x132 + x11 - z13 <= 1
 c385: x132 + x12 - z13 <= 1
 c386: x132 + x13 - z13 <= 1
 c387: x132 + x100 - z13 <= 1
 c388: x132 + x101 - z13 <= 1
 c389: x132 + x102 - z13 <= 1
 c390: x132 + x103 - z13 <= 1
 c391: x132 + x113 - z13 <= 1
 c392: x132 + x212 - z13 <= 1
 c393: x132 + x240 - z13 <= 1
 c394: x132 + x241 - z13 <= 1
 c395: x133 + x10 - z13 <= 1
 c396: x133 + x13 - z13 <= 1
 c397: x133 + x100 - z13 <= 1
 c398: x133 + x103 - z13 <= 1
 c399: x133 + x212 - z13 <= 1
 c400: x133 + x213 - z13 <= 1
 c401: x133 + x221 - z13 <= 1
 c402: x133 + x222 - z13 <= 1
 c403: x133 + x240 - z13 <= 1
 c404: x140 + x50 - z14 <= 1
 c405: x140 + x51 - z14 <= 1
 c406: x140 + x153 - z14 <= 1
 c407: x140 + x160 - z14 <= 1
 c408: x140 + x161 - z14 <= 1
 c409: x141 + x51 - z14 <= 1
 c410: x141 + x80 - z14 <= 1
 c411: x141 + x83 - z14 <= 1
 c412: x141 + x152 - z14 <= 1
 c413: x141 + x153 - z14 <= 1
 c414: x141 + x161 - z14 <= 1
 c415: x141 + x230 - z14 <= 1
 c416: x141 + x233 - z14 <= 1
 c417: x142 + x41 - z14 <= 1
 c418: x142 + x51 - z14 <= 1
 c419: x142 + x52 - z14 <= 1
 c420: x142 + x83 - z14 <= 1
 c421: x142 + x161 - z14 <= 1
 c422: x142 + x162 - z14 <= 1
 c423: x142 + x191 - z14 <= 1
 c424: x142 + x233 - z14 <= 1
 c425: x143 + x40 - z14 <= 1
 c426: x143 + x41 - z14 <= 1
 c427: x143 + x50 - z14 <= 1
 c428: x143 + x51 - z14 <= 1
 c429: x143 + x52 - z14 <= 1
 c430: x143 + x53 - z14 <= 1
 c431: x143 + x160 - z14 <= 1
 c432: x143 + x161 - z14 <= 1
 c433: x143 + x162 - z14 <= 1
 c434: x143 + x163 - z14 <= 1
 c435: x143 + x190 - z14 <= 1
 c436: x143 + x191 - z14 <= 1
 c437: x150 + x32 - z15 <= 1
 c438: x150 + x92 - z15 <= 1
 c439: x150 + x93 - z15 <= 1
 c440: x150 + x122 - z15 <= 1
 c441: x150 + x183 - z15 <= 1
 c442: x150 + x203 - z15 <= 1
 c443: x150 + x230 - z15 <= 1
 c444: x151 + x80 - z15 <= 1
 c445: x151 + x92 - z15 <= 1
 c446: x151 + x182 - z15 <= 1
 c447: x151 + x183 - z15 <= 1
 c448: x151 + x202 - z15 <= 1
 c449: x151 + x203 - z15 <= 1
 c450: x151 + x230 - z15 <= 1
 c451: x151 + x231 - z15 <= 1
 c452: x152 + x80 - z15 <= 1
 c453: x152 + x83 - z15 <= 1
 c454: x152 + x141 - z15 <= 1
 c455: x152 + x230 - z15 <= 1
 c456: x152 + x231 - z15 <= 1
 c457: x152 + x232 - z15 <= 1
 c458: x152 + x233 - z15 <= 1
 c459: x153 + x140 - z15 <= 1
 c460: x153 + x141 - z15 <= 1
 c461: x153 + x230 - z15 <= 1
 c462: x153 + x233 - z15 <= 1
 c463: x160 + x40 - z16 <= 1
 c464: x160 + x41 - z16 <= 1
 c465: x160 + x50 - z16 <= 1
 c466: x160 + x53 - z16 <= 1
 c467: x160 + x140 - z16 <= 1
 c468: x160 + x143 - z16 <= 1
 c469: x160 + x190 - z16 <= 1
 c470: x160 + x191 - z16 <= 1
 c471: x161 + x41 - z16 <= 1
 c472: x161 + x50 - z16 <= 1
 c473: x161 + x51 - z16 <= 1
 c474: x161 + x52 - z16 <= 1
 c475: x161 + x53 - z16 <= 1
 c476: x161 + x140 - z16 <= 1
 c477: x161 + x141 - z16 <= 1
 c478: x161 + x142 - z16 <= 1
 c479: x161 + x143 - z16 <= 1
 c480: x161 + x191 - z16 <= 1
 c481: x162 + x41 - z16 <= 1
 c482: x162 + x42 - z16 <= 1
 c483: x162 + x52 - z16 <= 1
 c484: x162 + x53 - z16 <= 1
 c485: x162 + x142 - z16 <= 1
 c486: x162 + x143 - z16 <= 1
 c487: x162 + x191 - z16 <= 1
 c488: x162 + x192 - z16 <= 1
 c489: x163 + x40 - z16 <= 1
 c490: x163 + x41 - z16 <= 1
 c491: x163 + x42 - z16 <= 1
 c492: x163 + x43 - z16 <= 1
 c493: x163 + x53 - z16 <= 1
 c494: x163 + x143 - z16 <= 1
 c495: x163 + x190 - z16 <= 1
 c496: x163 + x191 - z16 <= 1
 c497: x163 + x192 - z16 <= 1
 c498: x163 + x193 - z16 <= 1
 c499: x170 + x02 - z17 <= 1
 c500: x170 + x03 - z17 <= 1
 c501: x170 + x70 - z17 <= 1
 c502: x170 + x73 - z17 <= 1
 c503: x171 + x02 - z17 <= 1
 c504: x171 + x70 - z17 <= 1
 c505: x171 + x71 - z17 <= 1
 c506: x171 + x72 - z17 <= 1
 c507: x171 + x73 - z17 <= 1
 c508: x172 + x72 - z17 <= 1
 c509: x172 + x73 - z17 <= 1
 c510: x173 + x73 - z17 <= 1
 c511: x180 + x31 - z18 <= 1
 c512: x180 + x32 - z18 <= 1
 c513: x180 + x91 - z18 <= 1
 c514: x180 + x92 - z18 <= 1
 c515: x180 + x200 - z18 <= 1
 c516: x180 + x203 - z18 <= 1
 c517: x180 + x240 - z18 <= 1
 c518: x180 + x241 - z18 <= 1
 c519: x180 + x242 - z18 <= 1
 c520: x180 + x243 - z18 <= 1
 c521: x181 + x200 - z18 <= 1
 c522: x181 + x201 - z18 <= 1
 c523: x181 + x202 - z18 <= 1
 c524: x181 + x203 - z18 <= 1
 c525: x181 + x241 - z18 <= 1
 c526: x181 + x242 - z18 <= 1
 c527: x182 + x151 - z18 <= 1
 c528: x182 + x202 - z18 <= 1
 c529: x182 + x203 - z18 <= 1
 c530: x182 + x230 - z18 <= 1
 c531: x182 + x231 - z18 <= 1
 c532: x182 + x242 - z18 <= 1
 c533: x183 + x32 - z18 <= 1
 c534: x183 + x92 - z18 <= 1
 c535: x183 + x150 - z18 <= 1
 c536: x183 + x151 - z18 <= 1
 c537: x183 + x203 - z18 <= 1
 c538: x183 + x230 - z18 <= 1
 c539: x183 + x242 - z18 <= 1
 c540: x183 + x243 - z18 <= 1
 c541: x190 + x40 - z19 <= 1
 c542: x190 + x43 - z19 <= 1
 c543: x190 + x53 - z19 <= 1
 c544: x190 + x143 - z19 <= 1
 c545: x190 + x160 - z19 <= 1
 c546: x190 + x163 - z19 <= 1
 c547: x191 + x40 - z19 <= 1
 c548: x191 + x41 - z19 <= 1
 c549: x191 + x42 - z19 <= 1
 c550: x191 + x43 - z19 <= 1
 c551: x191 + x52 - z19 <= 1
 c552: x191 + x53 - z19 <= 1
 c553: x191 + x142 - z19 <= 1
 c554: x191 + x143 - z19 <= 1
 c555: x191 + x160 - z19 <= 1
 c556: x191 + x161 - z19 <= 1
 c557: x191 + x162 - z19 <= 1
 c558: x191 + x163 - z19 <= 1
 c559: x192 + x00 - z19 <= 1
 c560: x192 + x01 - z19 <= 1
 c561: x192 + x42 - z19 <= 1
 c562: x192 + x43 - z19 <= 1
 c563: x192 + x162 - z19 <= 1
 c564: x192 + x163 - z19 <= 1
 c565: x193 + x00 - z19 <= 1
 c566: x193 + x43 - z19 <= 1
 c567: x193 + x163 - z19 <= 1
 c568: x200 + x31 - z20 <= 1
 c569: x200 + x91 - z20 <= 1
 c570: x200 + x102 - z20 <= 1
 c571: x200 + x103 - z20 <= 1
 c572: x200 + x180 - z20 <= 1
 c573: x200 + x181 - z20 <= 1
 c574: x200 + x222 - z20 <= 1
 c575: x200 + x240 - z20 <= 1
 c576: x200 + x241 - z20 <= 1
 c577: x200 + x242 - z20 <= 1
 c578: x200 + x243 - z20 <= 1
 c579: x201 + x102 - z20 <= 1
 c580: x201 + x181 - z20 <= 1
 c581: x201 + x241 - z20 <= 1
 c582: x201 + x242 - z20 <= 1
 c583: x202 + x151 - z20 <= 1
 c584: x202 + x181 - z20 <= 1
 c585: x202 + x182 - z20 <= 1
 c586: x202 + x242 - z20 <= 1
 c587: x203 + x31 - z20 <= 1
 c588: x203 + x32 - z20 <= 1
 c589: x203 + x91 - z20 <= 1
 c590: x203 + x92 - z20 <= 1
 c591: x203 + x150 - z20 <= 1
 c592: x203 + x151 - z20 <= 1
 c593: x203 + x180 - z20 <= 1
 c594: x203 + x181 - z20 <= 1
 c595: x203 + x182 - z20 <= 1
 c596: x203 + x183 - z20 <= 1
 c597: x203 + x242 - z20 <= 1
 c598: x203 + x243 - z20 <= 1
 c599: x210 + x130 - z21 <= 1
 c600: x210 + x220 - z21 <= 1
 c601: x210 + x221 - z21 <= 1
 c602: x211 + x10 - z21 <= 1
 c603: x211 + x60 - z21 <= 1
 c604: x211 + x63 - z21 <= 1
 c605: x211 + x110 - z21 <= 1
 c606: x211 + x113 - z21 <= 1
 c607: x211 + x130 - z21 <= 1
 c608: x211 + x131 - z21 <= 1
 c609: x211 + x221 - z21 <= 1
 c610: x212 + x10 - z21 <= 1
 c611: x212 + x13 - z21 <= 1
 c612: x212 + x63 - z21 <= 1
 c613: x212 + x100 - z21 <= 1
 c614: x212 + x101 - z21 <= 1
 c615: x212 + x113 - z21 <= 1
 c616: x212 + x130 - z21 <= 1
 c617: x212 + x131 - z21 <= 1
 c618: x212 + x132 - z21 <= 1
 c619: x212 + x133 - z21 <= 1
 c620: x212 + x221 - z21 <= 1
 c621: x212 + x222 - z21 <= 1
 c622: x213 + x100 - z21 <= 1
 c623: x213 + x130 - z21 <= 1
 c624: x213 + x133 - z21 <= 1
 c625: x213 + x220 - z21 <= 1
 c626: x213 + x221 - z21 <= 1
 c627: x213 + x222 - z21 <= 1
 c628: x213 + x223 - z21 <= 1
 c629: x220 + x210 - z22 <= 1
 c630: x220 + x213 - z22 <= 1
 c631: x221 + x10 - z22 <= 1
 c632: x221 + x13 - z22 <= 1
 c633: x221 + x63 - z22 <= 1
 c634: x221 + x100 - z22 <= 1
 c635: x221 + x130 - z22 <= 1
 c636: x221 + x133 - z22 <= 1
 c637: x221 + x210 - z22 <= 1
 c638: x221 + x211 - z22 <= 1
 c639: x221 + x212 - z22 <= 1
 c640: x221 + x213 - z22 <= 1
 c641: x222 + x13 - z22 <= 1
 c642: x222 + x100 - z22 <= 1
 c643: x222 + x103 - z22 <= 1
 c644: x222 + x133 - z22 <= 1
 c645: x222 + x200 - z22 <= 1
 c646: x222 + x212 - z22 <= 1
 c647: x222 + x213 - z22 <= 1
 c648: x222 + x240 - z22 <= 1
 c649: x223 + x213 - z22 <= 1
 c650: x230 + x80 - z23 <= 1
 c651: x230 + x141 - z23 <= 1
 c652: x230 + x150 - z23 <= 1
 c653: x230 + x151 - z23 <= 1
 c654: x230 + x152 - z23 <= 1
 c655: x230 + x153 - z23 <= 1
 c656: x230 + x182 - z23 <= 1
 c657: x230 + x183 - z23 <= 1
 c658: x231 + x80 - z23 <= 1
 c659: x231 + x81 - z23 <= 1
 c660: x231 + x151 - z23 <= 1
 c661: x231 + x152 - z23 <= 1
 c662: x231 + x182 - z23 <= 1
 c663: x232 + x80 - z23 <= 1
 c664: x232 + x81 - z23 <= 1
 c665: x232 + x82 - z23 <= 1
 c666: x232 + x83 - z23 <= 1
 c667: x232 + x152 - z23 <= 1
 c668: x233 + x51 - z23 <= 1
 c669: x233 + x80 - z23 <= 1
 c670: x233 + x83 - z23 <= 1
 c671: x233 + x141 - z23 <= 1
 c672: x233 + x142 - z23 <= 1
 c673: x233 + x152 - z23 <= 1
 c674: x233 + x153 - z23 <= 1
 c675: x240 + x12 - z24 <= 1
 c676: x240 + x13 - z24 <= 1
 c677: x240 + x31 - z24 <= 1
 c678: x240 + x91 - z24 <= 1
 c679: x240 + x102 - z24 <= 1
 c680: x240 + x103 - z24 <= 1
 c681: x240 + x132 - z24 <= 1
 c682: x240 + x133 - z24 <= 1
 c683: x240 + x180 - z24 <= 1
 c684: x240 + x200 - z24 <= 1
 c685: x240 + x222 - z24 <= 1
 c686: x241 + x12 - z24 <= 1
 c687: x241 + x102 - z24 <= 1
 c688: x241 + x132 - z24 <= 1
 c689: x241 + x180 - z24 <= 1
 c690: x241 + x181 - z24 <= 1
 c691: x241 + x200 - z24 <= 1
 c692: x241 + x201 - z24 <= 1
 c693: x242 + x180 - z24 <= 1
 c694: x242 + x181 - z24 <= 1
 c695: x242 + x182 - z24 <= 1
 c696: x242 + x183 - z24 <= 1
 c697: x242 + x200 - z24 <= 1
 c698: x242 + x201 - z24 <= 1
 c699: x242 + x202 - z24 <= 1
 c700: x242 + x203 - z24 <= 1
 c701: x243 + x31 - z24 <= 1
 c702: x243 + x32 - z24 <= 1
 c703: x243 + x91 - z24 <= 1
 c704: x243 + x92 - z24 <= 1
 c705: x243 + x180 - z24 <= 1
 c706: x243 + x183 - z24 <= 1
 c707: x243 + x200 - z24 <= 1
 c708: x243 + x203 - z24 <= 1
Binary
 x00
 x01
 x02
 x03
 z0
 x10
 x11
 x12
 x13
 z1
 x20
 x21
 x22
 x23
 z2
 x30
 x31
 x32
 x33
 z3
 x40
 x41
 x42
 x43
 z4
 x50
 x51
 x52
 x53
 z5
 x60
 x61
 x62
 x63
 z6
 x70
 x71
 x72
 x73
 z7
 x80
 x81
 x82
 x83
 z8
 x90
 x91
 x92
 x93
 z9
 x100
 x101
 x102
 x103
 z10
 x110
 x111
 x112
 x113
 z11
 x120
 x121
 x122
 x123
 z12
 x130
 x131
 x132
 x133
 z13
 x140
 x141
 x142
 x143
 z14
 x150
 x151
 x152
 x153
 z15
 x160
 x161
 x162
 x163
 z16
 x170
 x171
 x172
 x173
 z17
 x180
 x181
 x182
 x183
 z18
 x190
 x191
 x192
 x193
 z19
 x200
 x201
 x202
 x203
 z20
 x210
 x211
 x212
 x213
 z21
 x220
 x221
 x222
 x223
 z22
 x230
 x231
 x232
 x233
 z23
 x240
 x241
 x242
 x243
 z24
End